 200 2 
 65 95 
 2 
 1 2 
 2 
 1 2 
 2 
 1 2 
 2 
 1 2 
 2 
 1 2 
 2 
 1 2 
 2 
 1 2 
 2 
 1 2 
 2 
 1 2 
 2 
 1 2 
 2 
 1 2 
 2 
 1 2 
 2 
 1 2 
 2 
 1 2 
 2 
 1 2 
 2 
 1 2 
 2 
 1 2 
 2 
 1 2 
 2 
 1 2 
 2 
 1 2 
 2 
 1 2 
 2 
 1 2 
 2 
 1 2 
 2 
 1 2 
 2 
 1 2 
 2 
 1 2 
 2 
 1 2 
 2 
 1 2 
 2 
 1 2 
 2 
 1 2 
 2 
 1 2 
 2 
 1 2 
 2 
 1 2 
 2 
 1 2 
 2 
 1 2 
 2 
 1 2 
 2 
 1 2 
 2 
 1 2 
 2 
 1 2 
 2 
 1 2 
 2 
 1 2 
 2 
 1 2 
 2 
 1 2 
 2 
 1 2 
 2 
 1 2 
 2 
 1 2 
 2 
 1 2 
 2 
 1 2 
 2 
 1 2 
 2 
 1 2 
 2 
 1 2 
 2 
 1 2 
 2 
 1 2 
 2 
 1 2 
 2 
 1 2 
 2 
 1 2 
 2 
 1 2 
 2 
 1 2 
 2 
 1 2 
 2 
 1 2 
 2 
 1 2 
 2 
 1 2 
 2 
 1 2 
 2 
 1 2 
 2 
 1 2 
 2 
 1 2 
 2 
 1 2 
 2 
 1 2 
 2 
 1 2 
 2 
 1 2 
 2 
 1 2 
 2 
 1 2 
 2 
 1 2 
 2 
 1 2 
 2 
 1 2 
 2 
 1 2 
 2 
 1 2 
 2 
 1 2 
 2 
 1 2 
 2 
 1 2 
 2 
 1 2 
 2 
 1 2 
 2 
 1 2 
 2 
 1 2 
 2 
 1 2 
 2 
 1 2 
 2 
 1 2 
 2 
 1 2 
 2 
 1 2 
 2 
 1 2 
 2 
 1 2 
 2 
 1 2 
 2 
 1 2 
 2 
 1 2 
 2 
 1 2 
 2 
 1 2 
 2 
 1 2 
 2 
 1 2 
 2 
 1 2 
 2 
 1 2 
 2 
 1 2 
 2 
 1 2 
 2 
 1 2 
 2 
 1 2 
 2 
 1 2 
 2 
 1 2 
 2 
 1 2 
 2 
 1 2 
 2 
 1 2 
 2 
 1 2 
 2 
 1 2 
 2 
 1 2 
 2 
 1 2 
 2 
 1 2 
 2 
 1 2 
 2 
 1 2 
 2 
 1 2 
 2 
 1 2 
 2 
 1 2 
 2 
 1 2 
 2 
 1 2 
 2 
 1 2 
 2 
 1 2 
 2 
 1 2 
 2 
 1 2 
 2 
 1 2 
 2 
 1 2 
 2 
 1 2 
 2 
 1 2 
 2 
 1 2 
 2 
 1 2 
 2 
 1 2 
 2 
 1 2 
 2 
 1 2 
 2 
 1 2 
 2 
 1 2 
 2 
 1 2 
 2 
 1 2 
 2 
 1 2 
 2 
 1 2 
 2 
 1 2 
 2 
 1 2 
 2 
 1 2 
 2 
 1 2 
 2 
 1 2 
 2 
 1 2 
 2 
 1 2 
 2 
 1 2 
 2 
 1 2 
 2 
 1 2 
 2 
 1 2 
 2 
 1 2 
 2 
 1 2 
 2 
 1 2 
 2 
 1 2 
 2 
 1 2 
 2 
 1 2 
 2 
 1 2 
 2 
 1 2 
 2 
 1 2 
 2 
 1 2 
 2 
 1 2 
 2 
 1 2 
 2 
 1 2 
 2 
 1 2 
 2 
 1 2 
 2 
 1 2 
 2 
 1 2 
 2 
 1 2 
 2 
 1 2 
 2 
 1 2 
 2 
 1 2 
 2 
 1 2 
 2 
 1 2 
 2 
 1 2 
 2 
 1 2 
 2 
 1 2 
 2 
 1 2 
 2 
 1 2 
 2 
 1 2 
 2 
 1 2 
 2 
 1 2 
 2 
 1 2 
 2 
 1 2 
 2 
 1 2 
 2 
 1 2 
 2 
 1 2 
 2 
 1 2 
 2 
 1 2 
 2 
 1 2 
 2 
 1 2 
 2 
 1 2 
 2 
 1 2 
 2 
 1 2 
 2 
 1 2 
 2 
 1 2 
 2 
 1 2 
 2 
 1 2 
 2 
 1 2 
 2 
 1 2 
 